1270804
0,4,34,97,100,51,28,58,83,50,1,80,45,93,106,15,24,62,19,43,42,84,60,31,94,5,29,102,55,91,3,78,66,73,14,16,79,47,20,12,92,95,86,61,18,72,41,59,105,107,32,77,54,67,39,7,27,35,11,64,87,6,17,49,75,98,104,70,46,30,38,13,69,68,26,85,74,56,71,37,40,25,36,8,76,65,9,48,10,90,88,96,103,57,53,101,99,52,21,63,22,23,108,89,2,82,33,44,81,0